138548.56,62.96,78.07
139953.65,62.32,77.29
149127.44,58.49,72.53
151440.81,57.6,71.43
139161.05,62.68,77.73
139295.1,62.62,77.65
140461.95,62.1,77.01
152673.57,57.13,70.85
157631.09,55.34,68.62
143276.99,60.88,75.49
139184.74,62.67,77.71
155813.58,55.98,69.42
137471.74,63.45,78.68
145019.86,60.15,74.59
149543.4,58.33,72.33
162439.29,53.7,66.59
145244.9,60.05,74.47
154927.47,56.3,69.82
136843.74,63.74,79.04
134843.8,64.69,80.22
